10
0 86 66 86 54 50 88 38 52 86 
86 0 79 34 27 64 99 41 65 40 
66 79 0 40 53 81 47 19 15 53 
86 34 40 0 25 69 17 81 39 13 
54 27 53 25 0 94 34 32 40 3 
50 64 81 69 94 0 89 74 11 93 
88 99 47 17 34 89 0 76 17 81 
38 41 19 81 32 74 76 0 18 21 
52 65 15 39 40 11 17 18 0 20 
86 40 53 13 3 93 81 21 20 0 
RRRRBBBRBB
